38872
1 1 1 1 1 1 0 1 0 1 1 1 1 0 1 1 1 1 0 1 1 0 1 1 1 1 0 1 1 1
19 20 1 15 9 3 10 3 24 25 9 4 0 12 9 2 14 16 16 20 16 16 4 19 17 9 7 0 3 16 4 5 7 3 2 16 7 24 24 10 1 12 12 1 22 22 12 5 22 19 17 14 24 4 17 28 5 5 14 15 17 11 22 25 15 24 5 14 9 10 29 3 2 25 0 15 22 17 3 14 5 25 11 23 20 5 15 2 24 15 9 29 0 27 29 17 20 23 11 3 29 17 27 11 27 7 1 23 11 9 25 1 29 1 7 17 20 19 11 2 0 10 10 22 28 15 14 20 5 2 23 12 12 9 16 4 5 23 14 1 2 17 19 11 27 19 11 16 11 9 12 11 5 22 4 25 0 24 12 17 23 20 19 17 11 0 2 5 29 23 2 14 24 20 23 10 2 14 27 4 3 4 28 22 28 15 29 1 28 29 0 0 23 20 23 10 4 1 27 23